p cnf 966 2481
51 -2 -699 0
-51 2 0
-51 699 0
52 -51 -700 0
-52 51 0
-52 700 0
53 -701 -702 0
-53 701 0
-53 702 0
54 -53 -5 0
-54 53 0
-54 5 0
55 -703 -704 0
-55 703 0
-55 704 0
56 -7 -6 0
-56 7 0
-56 6 0
57 -56 -8 0
-57 56 0
-57 8 0
58 -705 -55 0
-58 705 0
-58 55 0
59 -9 -706 0
-59 9 0
-59 706 0
60 -59 -10 0
-60 59 0
-60 10 0
61 -707 -58 0
-61 707 0
-61 58 0
62 -708 -8 0
-62 708 0
-62 8 0
63 -62 -709 0
-63 62 0
-63 709 0
64 -710 -61 0
-64 710 0
-64 61 0
65 -711 -712 0
-65 711 0
-65 712 0
66 -65 -15 0
-66 65 0
-66 15 0
67 -713 -64 0
-67 713 0
-67 64 0
68 -714 -14 0
-68 714 0
-68 14 0
69 -68 -715 0
-69 68 0
-69 715 0
70 -716 -67 0
-70 716 0
-70 67 0
71 -717 -17 0
-71 717 0
-71 17 0
72 -71 -706 0
-72 71 0
-72 706 0
73 -718 -70 0
-73 718 0
-73 70 0
74 -719 -19 0
-74 719 0
-74 19 0
75 -74 -720 0
-75 74 0
-75 720 0
76 -721 -73 0
-76 721 0
-76 73 0
77 -14 -10 0
-77 14 0
-77 10 0
78 -77 -722 0
-78 77 0
-78 722 0
79 -723 -76 0
-79 723 0
-79 76 0
80 -23 -6 0
-80 23 0
-80 6 0
81 -80 -24 0
-81 80 0
-81 24 0
82 -724 -79 0
-82 724 0
-82 79 0
83 -725 -17 0
-83 725 0
-83 17 0
84 -83 -10 0
-84 83 0
-84 10 0
85 -726 -82 0
-85 726 0
-85 82 0
86 -727 -715 0
-86 727 0
-86 715 0
87 -86 -708 0
-87 86 0
-87 708 0
88 -728 -85 0
-88 728 0
-88 85 0
89 -725 -23 0
-89 725 0
-89 23 0
90 -89 -27 0
-90 89 0
-90 27 0
91 -729 -88 0
-91 729 0
-91 88 0
92 -29 -730 0
-92 29 0
-92 730 0
93 -92 -701 0
-93 92 0
-93 701 0
94 -731 -91 0
-94 731 0
-94 91 0
95 -732 -706 0
-95 732 0
-95 706 0
96 -95 -733 0
-96 95 0
-96 733 0
97 -734 -94 0
-97 734 0
-97 94 0
98 -25 -735 0
-98 25 0
-98 735 0
99 -98 -736 0
-99 98 0
-99 736 0
100 -737 -97 0
-100 737 0
-100 97 0
101 -738 -739 0
-101 738 0
-101 739 0
102 -101 -740 0
-102 101 0
-102 740 0
103 -741 -100 0
-103 741 0
-103 100 0
104 -742 -735 0
-104 742 0
-104 735 0
105 -104 -743 0
-105 104 0
-105 743 0
106 -744 -103 0
-106 744 0
-106 103 0
107 -36 -2 0
-107 36 0
-107 2 0
108 -107 -708 0
-108 107 0
-108 708 0
109 -745 -106 0
-109 745 0
-109 106 0
110 -37 -6 0
-110 37 0
-110 6 0
111 -110 -746 0
-111 110 0
-111 746 0
112 -747 -109 0
-112 747 0
-112 109 0
113 -38 -711 0
-113 38 0
-113 711 0
114 -113 -743 0
-114 113 0
-114 743 0
115 -748 -112 0
-115 748 0
-115 112 0
116 -38 -708 0
-116 38 0
-116 708 0
117 -116 -749 0
-117 116 0
-117 749 0
118 -750 -115 0
-118 750 0
-118 115 0
119 -40 -26 0
-119 40 0
-119 26 0
120 -119 -34 0
-120 119 0
-120 34 0
121 -751 -118 0
-121 751 0
-121 118 0
122 -733 -4 0
-122 733 0
-122 4 0
123 -122 -752 0
-123 122 0
-123 752 0
124 -753 -121 0
-124 753 0
-124 121 0
125 -41 -754 0
-125 41 0
-125 754 0
126 -125 -23 0
-126 125 0
-126 23 0
127 -755 -124 0
-127 755 0
-127 124 0
128 -727 -717 0
-128 727 0
-128 717 0
129 -128 -7 0
-129 128 0
-129 7 0
130 -756 -127 0
-130 756 0
-130 127 0
131 -757 -699 0
-131 757 0
-131 699 0
132 -131 -758 0
-132 131 0
-132 758 0
133 -759 -130 0
-133 759 0
-133 130 0
134 -23 -746 0
-134 23 0
-134 746 0
135 -134 -35 0
-135 134 0
-135 35 0
136 -760 -133 0
-136 760 0
-136 133 0
137 -732 -23 0
-137 732 0
-137 23 0
138 -137 -43 0
-138 137 0
-138 43 0
139 -761 -136 0
-139 761 0
-139 136 0
140 -727 -711 0
-140 727 0
-140 711 0
141 -140 -11 0
-141 140 0
-141 11 0
142 -762 -139 0
-142 762 0
-142 139 0
143 -29 -712 0
-143 29 0
-143 712 0
144 -143 -27 0
-144 143 0
-144 27 0
145 -763 -142 0
-145 763 0
-145 142 0
146 -40 -735 0
-146 40 0
-146 735 0
147 -146 -23 0
-147 146 0
-147 23 0
148 -764 -145 0
-148 764 0
-148 145 0
149 -31 -746 0
-149 31 0
-149 746 0
150 -149 -44 0
-150 149 0
-150 44 0
151 -765 -148 0
-151 765 0
-151 148 0
152 -32 -766 0
-152 32 0
-152 766 0
153 -152 -16 0
-153 152 0
-153 16 0
154 -767 -151 0
-154 767 0
-154 151 0
155 -34 -754 0
-155 34 0
-155 754 0
156 -155 -758 0
-156 155 0
-156 758 0
157 -768 -154 0
-157 768 0
-157 154 0
158 -46 -769 0
-158 46 0
-158 769 0
159 -158 -16 0
-159 158 0
-159 16 0
160 -770 -157 0
-160 770 0
-160 157 0
161 -47 -732 0
-161 47 0
-161 732 0
162 -161 -4 0
-162 161 0
-162 4 0
163 -771 -160 0
-163 771 0
-163 160 0
164 -772 -733 0
-164 772 0
-164 733 0
165 -164 -43 0
-165 164 0
-165 43 0
166 -773 -163 0
-166 773 0
-166 163 0
167 -774 -36 0
-167 774 0
-167 36 0
168 -167 -39 0
-168 167 0
-168 39 0
169 -775 -166 0
-169 775 0
-169 166 0
170 -719 -708 0
-170 719 0
-170 708 0
171 -170 -758 0
-171 170 0
-171 758 0
172 -776 -169 0
-172 776 0
-172 169 0
173 -717 -4 0
-173 717 0
-173 4 0
174 -173 -22 0
-174 173 0
-174 22 0
175 -777 -172 0
-175 777 0
-175 172 0
176 -725 -14 0
-176 725 0
-176 14 0
177 -176 -778 0
-177 176 0
-177 778 0
178 -779 -175 0
-178 779 0
-178 175 0
179 -722 -1 0
-179 722 0
-179 1 0
180 -179 -42 0
-180 179 0
-180 42 0
181 -780 -178 0
-181 780 0
-181 178 0
182 -712 -700 0
-182 712 0
-182 700 0
183 -182 -708 0
-183 182 0
-183 708 0
184 -781 -181 0
-184 781 0
-184 181 0
185 -736 -13 0
-185 736 0
-185 13 0
186 -185 -35 0
-186 185 0
-186 35 0
187 -782 -184 0
-187 782 0
-187 184 0
188 -45 -16 0
-188 45 0
-188 16 0
189 -188 -11 0
-189 188 0
-189 11 0
190 -783 -187 0
-190 783 0
-190 187 0
191 -784 -20 0
-191 784 0
-191 20 0
192 -191 -32 0
-192 191 0
-192 32 0
193 -785 -190 0
-193 785 0
-193 190 0
194 -17 -700 0
-194 17 0
-194 700 0
195 -194 -722 0
-195 194 0
-195 722 0
196 -786 -193 0
-196 786 0
-196 193 0
197 -34 -25 0
-197 34 0
-197 25 0
198 -197 -740 0
-198 197 0
-198 740 0
199 -787 -196 0
-199 787 0
-199 196 0
200 -40 -22 0
-200 40 0
-200 22 0
201 -200 -740 0
-201 200 0
-201 740 0
202 -788 -199 0
-202 788 0
-202 199 0
203 -784 -727 0
-203 784 0
-203 727 0
204 -203 -27 0
-204 203 0
-204 27 0
205 -789 -202 0
-205 789 0
-205 202 0
206 -8 -7 0
-206 8 0
-206 7 0
207 -206 -33 0
-207 206 0
-207 33 0
208 -790 -205 0
-208 790 0
-208 205 0
209 -49 -12 0
-209 49 0
-209 12 0
210 -209 -35 0
-210 209 0
-210 35 0
211 -791 -208 0
-211 791 0
-211 208 0
212 -197 -5 0
-212 197 0
-212 5 0
213 -792 -211 0
-213 792 0
-213 211 0
214 -29 -7 0
-214 29 0
-214 7 0
215 -214 -742 0
-215 214 0
-215 742 0
216 -793 -213 0
-216 793 0
-216 213 0
217 -49 -36 0
-217 49 0
-217 36 0
218 -217 -34 0
-218 217 0
-218 34 0
219 -794 -216 0
-219 794 0
-219 216 0
220 -730 -795 0
-220 730 0
-220 795 0
221 -220 -714 0
-221 220 0
-221 714 0
222 -796 -219 0
-222 796 0
-222 219 0
223 -700 -1 0
-223 700 0
-223 1 0
224 -223 -22 0
-224 223 0
-224 22 0
225 -797 -222 0
-225 797 0
-225 222 0
226 -766 -715 0
-226 766 0
-226 715 0
227 -226 -43 0
-227 226 0
-227 43 0
228 -798 -225 0
-228 798 0
-228 225 0
229 -45 -13 0
-229 45 0
-229 13 0
230 -229 -746 0
-230 229 0
-230 746 0
231 -799 -228 0
-231 799 0
-231 228 0
232 -36 -13 0
-232 36 0
-232 13 0
233 -232 -700 0
-233 232 0
-233 700 0
234 -800 -231 0
-234 800 0
-234 231 0
235 -733 -21 0
-235 733 0
-235 21 0
236 -235 -801 0
-236 235 0
-236 801 0
237 -802 -234 0
-237 802 0
-237 234 0
238 -43 -774 0
-238 43 0
-238 774 0
239 -238 -758 0
-239 238 0
-239 758 0
240 -803 -237 0
-240 803 0
-240 237 0
241 -19 -14 0
-241 19 0
-241 14 0
242 -241 -706 0
-242 241 0
-242 706 0
243 -804 -240 0
-243 804 0
-243 240 0
244 -101 -10 0
-244 101 0
-244 10 0
245 -805 -243 0
-245 805 0
-245 243 0
246 -34 -700 0
-246 34 0
-246 700 0
247 -246 -806 0
-247 246 0
-247 806 0
248 -807 -245 0
-248 807 0
-248 245 0
249 -784 -700 0
-249 784 0
-249 700 0
250 -249 -24 0
-250 249 0
-250 24 0
251 -808 -248 0
-251 808 0
-251 248 0
252 -809 -702 0
-252 809 0
-252 702 0
253 -252 -15 0
-253 252 0
-253 15 0
254 -810 -251 0
-254 810 0
-254 251 0
255 -49 -31 0
-255 49 0
-255 31 0
256 -255 -15 0
-256 255 0
-256 15 0
257 -811 -254 0
-257 811 0
-257 254 0
258 -719 -1 0
-258 719 0
-258 1 0
259 -258 -48 0
-259 258 0
-259 48 0
260 -812 -257 0
-260 812 0
-260 257 0
261 -813 -809 0
-261 813 0
-261 809 0
262 -261 -701 0
-262 261 0
-262 701 0
263 -814 -260 0
-263 814 0
-263 260 0
264 -19 -715 0
-264 19 0
-264 715 0
265 -264 -11 0
-265 264 0
-265 11 0
266 -815 -263 0
-266 815 0
-266 263 0
267 -13 -795 0
-267 13 0
-267 795 0
268 -267 -778 0
-268 267 0
-268 778 0
269 -816 -266 0
-269 816 0
-269 266 0
270 -37 -795 0
-270 37 0
-270 795 0
271 -270 -801 0
-271 270 0
-271 801 0
272 -817 -269 0
-272 817 0
-272 269 0
273 -25 -20 0
-273 25 0
-273 20 0
274 -273 -9 0
-274 273 0
-274 9 0
275 -818 -272 0
-275 818 0
-275 272 0
276 -37 -732 0
-276 37 0
-276 732 0
277 -276 -709 0
-277 276 0
-277 709 0
278 -819 -275 0
-278 819 0
-278 275 0
279 -769 -31 0
-279 769 0
-279 31 0
280 -279 -10 0
-280 279 0
-280 10 0
281 -820 -278 0
-281 820 0
-281 278 0
282 -774 -1 0
-282 774 0
-282 1 0
283 -282 -26 0
-283 282 0
-283 26 0
284 -821 -281 0
-284 821 0
-284 281 0
285 -3 -2 0
-285 3 0
-285 2 0
286 -285 -720 0
-286 285 0
-286 720 0
287 -822 -284 0
-287 822 0
-287 284 0
288 -29 -778 0
-288 29 0
-288 778 0
289 -288 -33 0
-289 288 0
-289 33 0
290 -823 -287 0
-290 823 0
-290 287 0
291 -739 -6 0
-291 739 0
-291 6 0
292 -291 -743 0
-292 291 0
-292 743 0
293 -824 -290 0
-293 824 0
-293 290 0
294 -131 -26 0
-294 131 0
-294 26 0
295 -825 -293 0
-295 825 0
-295 293 0
296 -774 -15 0
-296 774 0
-296 15 0
297 -296 -706 0
-297 296 0
-297 706 0
298 -826 -295 0
-298 826 0
-298 295 0
299 -28 -727 0
-299 28 0
-299 727 0
300 -299 -12 0
-300 299 0
-300 12 0
301 -827 -298 0
-301 827 0
-301 298 0
302 -828 -738 0
-302 828 0
-302 738 0
303 -302 -12 0
-303 302 0
-303 12 0
304 -829 -301 0
-304 829 0
-304 301 0
305 -813 -725 0
-305 813 0
-305 725 0
306 -305 -708 0
-306 305 0
-306 708 0
307 -830 -304 0
-307 830 0
-307 304 0
308 -29 -23 0
-308 29 0
-308 23 0
309 -308 -33 0
-309 308 0
-309 33 0
310 -831 -307 0
-310 831 0
-310 307 0
311 -712 -1 0
-311 712 0
-311 1 0
312 -311 -702 0
-312 311 0
-312 702 0
313 -832 -310 0
-313 832 0
-313 310 0
314 -813 -706 0
-314 813 0
-314 706 0
315 -314 -29 0
-315 314 0
-315 29 0
316 -833 -313 0
-316 833 0
-316 313 0
317 -34 -730 0
-317 34 0
-317 730 0
318 -317 -740 0
-318 317 0
-318 740 0
319 -834 -316 0
-319 834 0
-319 316 0
320 -50 -30 0
-320 50 0
-320 30 0
321 -320 -709 0
-321 320 0
-321 709 0
322 -835 -319 0
-322 835 0
-322 319 0
323 -757 -706 0
-323 757 0
-323 706 0
324 -323 -752 0
-324 323 0
-324 752 0
325 -836 -322 0
-325 836 0
-325 322 0
326 -719 -702 0
-326 719 0
-326 702 0
327 -326 -50 0
-327 326 0
-327 50 0
328 -837 -325 0
-328 837 0
-328 325 0
329 -25 -754 0
-329 25 0
-329 754 0
330 -329 -33 0
-330 329 0
-330 33 0
331 -838 -328 0
-331 838 0
-331 328 0
332 -45 -701 0
-332 45 0
-332 701 0
333 -332 -839 0
-333 332 0
-333 839 0
334 -840 -331 0
-334 840 0
-334 331 0
335 -712 -699 0
-335 712 0
-335 699 0
336 -335 -43 0
-336 335 0
-336 43 0
337 -841 -334 0
-337 841 0
-337 334 0
338 -23 -14 0
-338 23 0
-338 14 0
339 -338 -722 0
-339 338 0
-339 722 0
340 -842 -337 0
-340 842 0
-340 337 0
341 -49 -30 0
-341 49 0
-341 30 0
342 -341 -828 0
-342 341 0
-342 828 0
343 -843 -340 0
-343 843 0
-343 340 0
344 -769 -3 0
-344 769 0
-344 3 0
345 -344 -742 0
-345 344 0
-345 742 0
346 -844 -343 0
-346 844 0
-346 343 0
347 -50 -733 0
-347 50 0
-347 733 0
348 -347 -746 0
-348 347 0
-348 746 0
349 -845 -346 0
-349 845 0
-349 346 0
350 -813 -37 0
-350 813 0
-350 37 0
351 -350 -758 0
-351 350 0
-351 758 0
352 -846 -349 0
-352 846 0
-352 349 0
353 -21 -19 0
-353 21 0
-353 19 0
354 -353 -10 0
-354 353 0
-354 10 0
355 -847 -352 0
-355 847 0
-355 352 0
356 -37 -706 0
-356 37 0
-356 706 0
357 -356 -708 0
-357 356 0
-357 708 0
358 -848 -355 0
-358 848 0
-358 355 0
359 -38 -29 0
-359 38 0
-359 29 0
360 -359 -43 0
-360 359 0
-360 43 0
361 -849 -358 0
-361 849 0
-361 358 0
362 -41 -727 0
-362 41 0
-362 727 0
363 -362 -9 0
-363 362 0
-363 9 0
364 -850 -361 0
-364 850 0
-364 361 0
365 -772 -754 0
-365 772 0
-365 754 0
366 -365 -16 0
-366 365 0
-366 16 0
367 -851 -364 0
-367 851 0
-367 364 0
368 -36 -706 0
-368 36 0
-368 706 0
369 -368 -758 0
-369 368 0
-369 758 0
370 -852 -367 0
-370 852 0
-370 367 0
371 -49 -809 0
-371 49 0
-371 809 0
372 -371 -34 0
-372 371 0
-372 34 0
373 -853 -370 0
-373 853 0
-373 370 0
374 -854 -730 0
-374 854 0
-374 730 0
375 -374 -16 0
-375 374 0
-375 16 0
376 -855 -373 0
-376 855 0
-376 373 0
377 -32 -711 0
-377 32 0
-377 711 0
378 -377 -5 0
-378 377 0
-378 5 0
379 -856 -376 0
-379 856 0
-379 376 0
380 -34 -701 0
-380 34 0
-380 701 0
381 -380 -33 0
-381 380 0
-381 33 0
382 -857 -379 0
-382 857 0
-382 379 0
383 -26 -11 0
-383 26 0
-383 11 0
384 -383 -740 0
-384 383 0
-384 740 0
385 -858 -382 0
-385 858 0
-385 382 0
386 -8 -702 0
-386 8 0
-386 702 0
387 -386 -733 0
-387 386 0
-387 733 0
388 -859 -385 0
-388 859 0
-388 385 0
389 -806 -34 0
-389 806 0
-389 34 0
390 -389 -722 0
-390 389 0
-390 722 0
391 -860 -388 0
-391 860 0
-391 388 0
392 -735 -861 0
-392 735 0
-392 861 0
393 -392 -715 0
-393 392 0
-393 715 0
394 -862 -391 0
-394 862 0
-394 391 0
395 -25 -13 0
-395 25 0
-395 13 0
396 -395 -42 0
-396 395 0
-396 42 0
397 -863 -394 0
-397 863 0
-397 394 0
398 -757 -739 0
-398 757 0
-398 739 0
399 -398 -801 0
-399 398 0
-399 801 0
400 -864 -397 0
-400 864 0
-400 397 0
401 -27 -13 0
-401 27 0
-401 13 0
402 -401 -50 0
-402 401 0
-402 50 0
403 -865 -400 0
-403 865 0
-403 400 0
404 -47 -736 0
-404 47 0
-404 736 0
405 -404 -15 0
-405 404 0
-405 15 0
406 -866 -403 0
-406 866 0
-406 403 0
407 -717 -699 0
-407 717 0
-407 699 0
408 -407 -7 0
-408 407 0
-408 7 0
409 -867 -406 0
-409 867 0
-409 406 0
410 -868 -706 0
-410 868 0
-410 706 0
411 -410 -861 0
-411 410 0
-411 861 0
412 -869 -409 0
-412 869 0
-412 409 0
413 -50 -784 0
-413 50 0
-413 784 0
414 -413 -10 0
-414 413 0
-414 10 0
415 -870 -412 0
-415 870 0
-415 412 0
416 -706 -701 0
-416 706 0
-416 701 0
417 -416 -8 0
-417 416 0
-417 8 0
418 -871 -415 0
-418 871 0
-418 415 0
419 -30 -15 0
-419 30 0
-419 15 0
420 -419 -34 0
-420 419 0
-420 34 0
421 -872 -418 0
-421 872 0
-421 418 0
422 -17 -795 0
-422 17 0
-422 795 0
423 -422 -813 0
-423 422 0
-423 813 0
424 -873 -421 0
-424 873 0
-424 421 0
425 -28 -752 0
-425 28 0
-425 752 0
426 -425 -758 0
-426 425 0
-426 758 0
427 -874 -424 0
-427 874 0
-427 424 0
428 -27 -706 0
-428 27 0
-428 706 0
429 -428 -34 0
-429 428 0
-429 34 0
430 -875 -427 0
-430 875 0
-430 427 0
431 -784 -739 0
-431 784 0
-431 739 0
432 -431 -722 0
-432 431 0
-432 722 0
433 -876 -430 0
-433 876 0
-433 430 0
434 -49 -766 0
-434 49 0
-434 766 0
435 -434 -701 0
-435 434 0
-435 701 0
436 -877 -433 0
-436 877 0
-436 433 0
437 -47 -23 0
-437 47 0
-437 23 0
438 -437 -778 0
-438 437 0
-438 778 0
439 -878 -436 0
-439 878 0
-439 436 0
440 -719 -13 0
-440 719 0
-440 13 0
441 -440 -3 0
-441 440 0
-441 3 0
442 -879 -439 0
-442 879 0
-442 439 0
443 -41 -719 0
-443 41 0
-443 719 0
444 -443 -14 0
-444 443 0
-444 14 0
445 -880 -442 0
-445 880 0
-445 442 0
446 -769 -735 0
-446 769 0
-446 735 0
447 -446 -9 0
-447 446 0
-447 9 0
448 -881 -445 0
-448 881 0
-448 445 0
449 -27 -700 0
-449 27 0
-449 700 0
450 -449 -4 0
-450 449 0
-450 4 0
451 -882 -448 0
-451 882 0
-451 448 0
452 -32 -30 0
-452 32 0
-452 30 0
453 -452 -42 0
-453 452 0
-453 42 0
454 -883 -451 0
-454 883 0
-454 451 0
455 -742 -700 0
-455 742 0
-455 700 0
456 -455 -746 0
-456 455 0
-456 746 0
457 -884 -454 0
-457 884 0
-457 454 0
458 -711 -702 0
-458 711 0
-458 702 0
459 -458 -739 0
-459 458 0
-459 739 0
460 -885 -457 0
-460 885 0
-460 457 0
461 -26 -719 0
-461 26 0
-461 719 0
462 -461 -33 0
-462 461 0
-462 33 0
463 -886 -460 0
-463 886 0
-463 460 0
464 -31 -754 0
-464 31 0
-464 754 0
465 -464 -706 0
-465 464 0
-465 706 0
466 -887 -463 0
-466 887 0
-466 463 0
467 -47 -17 0
-467 47 0
-467 17 0
468 -467 -709 0
-468 467 0
-468 709 0
469 -888 -466 0
-469 888 0
-469 466 0
470 -21 -1 0
-470 21 0
-470 1 0
471 -470 -4 0
-471 470 0
-471 4 0
472 -889 -469 0
-472 889 0
-472 469 0
473 -769 -15 0
-473 769 0
-473 15 0
474 -473 -38 0
-474 473 0
-474 38 0
475 -890 -472 0
-475 890 0
-475 472 0
476 -719 -14 0
-476 719 0
-476 14 0
477 -476 -48 0
-477 476 0
-477 48 0
478 -891 -475 0
-478 891 0
-478 475 0
479 -36 -709 0
-479 36 0
-479 709 0
480 -479 -42 0
-480 479 0
-480 42 0
481 -892 -478 0
-481 892 0
-481 478 0
482 -24 -5 0
-482 24 0
-482 5 0
483 -482 -749 0
-483 482 0
-483 749 0
484 -893 -481 0
-484 893 0
-484 481 0
485 -41 -36 0
-485 41 0
-485 36 0
486 -485 -894 0
-486 485 0
-486 894 0
487 -895 -484 0
-487 895 0
-487 484 0
488 -41 -772 0
-488 41 0
-488 772 0
489 -488 -813 0
-489 488 0
-489 813 0
490 -896 -487 0
-490 896 0
-490 487 0
491 -736 -26 0
-491 736 0
-491 26 0
492 -491 -742 0
-492 491 0
-492 742 0
493 -897 -490 0
-493 897 0
-493 490 0
494 -757 -868 0
-494 757 0
-494 868 0
495 -494 -739 0
-495 494 0
-495 739 0
496 -898 -493 0
-496 898 0
-496 493 0
497 -809 -861 0
-497 809 0
-497 861 0
498 -497 -22 0
-498 497 0
-498 22 0
499 -899 -496 0
-499 899 0
-499 496 0
500 -801 -22 0
-500 801 0
-500 22 0
501 -500 -740 0
-501 500 0
-501 740 0
502 -900 -499 0
-502 900 0
-502 499 0
503 -727 -699 0
-503 727 0
-503 699 0
504 -503 -743 0
-504 503 0
-504 743 0
505 -901 -502 0
-505 901 0
-505 502 0
506 -37 -2 0
-506 37 0
-506 2 0
507 -506 -739 0
-507 506 0
-507 739 0
508 -902 -505 0
-508 902 0
-508 505 0
509 -894 -3 0
-509 894 0
-509 3 0
510 -509 -10 0
-510 509 0
-510 10 0
511 -903 -508 0
-511 903 0
-511 508 0
512 -24 -715 0
-512 24 0
-512 715 0
513 -512 -35 0
-513 512 0
-513 35 0
514 -904 -511 0
-514 904 0
-514 511 0
515 -769 -738 0
-515 769 0
-515 738 0
516 -515 -746 0
-516 515 0
-516 746 0
517 -905 -514 0
-517 905 0
-517 514 0
518 -754 -7 0
-518 754 0
-518 7 0
519 -518 -752 0
-519 518 0
-519 752 0
520 -906 -517 0
-520 906 0
-520 517 0
521 -809 -700 0
-521 809 0
-521 700 0
522 -521 -720 0
-522 521 0
-522 720 0
523 -907 -520 0
-523 907 0
-523 520 0
524 -733 -699 0
-524 733 0
-524 699 0
525 -524 -22 0
-525 524 0
-525 22 0
526 -908 -523 0
-526 908 0
-526 523 0
527 -772 -25 0
-527 772 0
-527 25 0
528 -527 -806 0
-528 527 0
-528 806 0
529 -909 -526 0
-529 909 0
-529 526 0
530 -754 -2 0
-530 754 0
-530 2 0
531 -530 -34 0
-531 530 0
-531 34 0
532 -910 -529 0
-532 910 0
-532 529 0
533 -41 -1 0
-533 41 0
-533 1 0
534 -533 -711 0
-534 533 0
-534 711 0
535 -911 -532 0
-535 911 0
-535 532 0
536 -806 -14 0
-536 806 0
-536 14 0
537 -536 -740 0
-537 536 0
-537 740 0
538 -912 -535 0
-538 912 0
-538 535 0
539 -806 -21 0
-539 806 0
-539 21 0
540 -539 -44 0
-540 539 0
-540 44 0
541 -913 -538 0
-541 913 0
-541 538 0
542 -19 -778 0
-542 19 0
-542 778 0
543 -542 -758 0
-543 542 0
-543 758 0
544 -914 -541 0
-544 914 0
-544 541 0
545 -828 -739 0
-545 828 0
-545 739 0
546 -545 -11 0
-546 545 0
-546 11 0
547 -915 -544 0
-547 915 0
-547 544 0
548 -854 -735 0
-548 854 0
-548 735 0
549 -548 -738 0
-549 548 0
-549 738 0
550 -916 -547 0
-550 916 0
-550 547 0
551 -739 -18 0
-551 739 0
-551 18 0
552 -551 -738 0
-552 551 0
-552 738 0
553 -917 -550 0
-553 917 0
-553 550 0
554 -757 -730 0
-554 757 0
-554 730 0
555 -554 -736 0
-555 554 0
-555 736 0
556 -918 -553 0
-556 918 0
-556 553 0
557 -772 -795 0
-557 772 0
-557 795 0
558 -557 -806 0
-558 557 0
-558 806 0
559 -919 -556 0
-559 919 0
-559 556 0
560 -479 -33 0
-560 479 0
-560 33 0
561 -920 -559 0
-561 920 0
-561 559 0
562 -36 -29 0
-562 36 0
-562 29 0
563 -562 -839 0
-563 562 0
-563 839 0
564 -921 -561 0
-564 921 0
-564 561 0
565 -47 -712 0
-565 47 0
-565 712 0
566 -565 -894 0
-566 565 0
-566 894 0
567 -922 -564 0
-567 922 0
-567 564 0
568 -809 -725 0
-568 809 0
-568 725 0
569 -568 -854 0
-569 568 0
-569 854 0
570 -923 -567 0
-570 923 0
-570 567 0
571 -27 -21 0
-571 27 0
-571 21 0
572 -571 -16 0
-572 571 0
-572 16 0
573 -924 -570 0
-573 924 0
-573 570 0
574 -44 -10 0
-574 44 0
-574 10 0
575 -574 -43 0
-575 574 0
-575 43 0
576 -925 -573 0
-576 925 0
-576 573 0
577 -861 -4 0
-577 861 0
-577 4 0
578 -577 -743 0
-578 577 0
-578 743 0
579 -926 -576 0
-579 926 0
-579 576 0
580 -48 -14 0
-580 48 0
-580 14 0
581 -580 -21 0
-581 580 0
-581 21 0
582 -927 -579 0
-582 927 0
-582 579 0
583 -854 -754 0
-583 854 0
-583 754 0
584 -583 -758 0
-584 583 0
-584 758 0
585 -928 -582 0
-585 928 0
-585 582 0
586 -868 -13 0
-586 868 0
-586 13 0
587 -586 -43 0
-587 586 0
-587 43 0
588 -929 -585 0
-588 929 0
-588 585 0
589 -774 -706 0
-589 774 0
-589 706 0
590 -589 -701 0
-590 589 0
-590 701 0
591 -930 -588 0
-591 930 0
-591 588 0
592 -45 -715 0
-592 45 0
-592 715 0
593 -592 -708 0
-593 592 0
-593 708 0
594 -931 -591 0
-594 931 0
-594 591 0
595 -868 -14 0
-595 868 0
-595 14 0
596 -595 -806 0
-596 595 0
-596 806 0
597 -932 -594 0
-597 932 0
-597 594 0
598 -49 -784 0
-598 49 0
-598 784 0
599 -598 -715 0
-599 598 0
-599 715 0
600 -933 -597 0
-600 933 0
-600 597 0
601 -806 -738 0
-601 806 0
-601 738 0
602 -601 -43 0
-602 601 0
-602 43 0
603 -934 -600 0
-603 934 0
-603 600 0
604 -711 -9 0
-604 711 0
-604 9 0
605 -604 -715 0
-605 604 0
-605 715 0
606 -935 -603 0
-606 935 0
-606 603 0
607 -17 -1 0
-607 17 0
-607 1 0
608 -607 -766 0
-608 607 0
-608 766 0
609 -936 -606 0
-609 936 0
-609 606 0
610 -49 -26 0
-610 49 0
-610 26 0
611 -610 -11 0
-611 610 0
-611 11 0
612 -937 -609 0
-612 937 0
-612 609 0
613 -49 -725 0
-613 49 0
-613 725 0
614 -613 -26 0
-614 613 0
-614 26 0
615 -938 -612 0
-615 938 0
-615 612 0
616 -28 -717 0
-616 28 0
-616 717 0
617 -616 -854 0
-617 616 0
-617 854 0
618 -939 -615 0
-618 939 0
-618 615 0
619 -45 -25 0
-619 45 0
-619 25 0
620 -619 -9 0
-620 619 0
-620 9 0
621 -940 -618 0
-621 940 0
-621 618 0
622 -146 -27 0
-622 146 0
-622 27 0
623 -941 -621 0
-623 941 0
-623 621 0
624 -738 -699 0
-624 738 0
-624 699 0
625 -624 -11 0
-625 624 0
-625 11 0
626 -942 -623 0
-626 942 0
-626 623 0
627 -36 -6 0
-627 36 0
-627 6 0
628 -627 -20 0
-628 627 0
-628 20 0
629 -943 -626 0
-629 943 0
-629 626 0
630 -42 -37 0
-630 42 0
-630 37 0
631 -630 -749 0
-631 630 0
-631 749 0
632 -944 -629 0
-632 944 0
-632 629 0
633 -15 -13 0
-633 15 0
-633 13 0
634 -633 -708 0
-634 633 0
-634 708 0
635 -945 -632 0
-635 945 0
-635 632 0
636 -754 -13 0
-636 754 0
-636 13 0
637 -636 -24 0
-637 636 0
-637 24 0
638 -946 -635 0
-638 946 0
-638 635 0
639 -828 -757 0
-639 828 0
-639 757 0
640 -639 -743 0
-640 639 0
-640 743 0
641 -947 -638 0
-641 947 0
-641 638 0
642 -47 -40 0
-642 47 0
-642 40 0
643 -642 -3 0
-643 642 0
-643 3 0
644 -948 -641 0
-644 948 0
-644 641 0
645 -37 -711 0
-645 37 0
-645 711 0
646 -645 -16 0
-646 645 0
-646 16 0
647 -949 -644 0
-647 949 0
-647 644 0
648 -47 -720 0
-648 47 0
-648 720 0
649 -648 -33 0
-649 648 0
-649 33 0
650 -950 -647 0
-650 950 0
-650 647 0
651 -47 -754 0
-651 47 0
-651 754 0
652 -651 -749 0
-652 651 0
-652 749 0
653 -951 -650 0
-653 951 0
-653 650 0
654 -34 -21 0
-654 34 0
-654 21 0
655 -654 -722 0
-655 654 0
-655 722 0
656 -952 -653 0
-656 952 0
-656 653 0
657 -813 -766 0
-657 813 0
-657 766 0
658 -657 -35 0
-658 657 0
-658 35 0
659 -953 -656 0
-659 953 0
-659 656 0
660 -706 -2 0
-660 706 0
-660 2 0
661 -660 -766 0
-661 660 0
-661 766 0
662 -954 -659 0
-662 954 0
-662 659 0
663 -784 -769 0
-663 784 0
-663 769 0
664 -663 -706 0
-664 663 0
-664 706 0
665 -955 -662 0
-665 955 0
-665 662 0
666 -784 -809 0
-666 784 0
-666 809 0
667 -666 -7 0
-667 666 0
-667 7 0
668 -956 -665 0
-668 956 0
-668 665 0
669 -38 -732 0
-669 38 0
-669 732 0
670 -669 -742 0
-670 669 0
-670 742 0
671 -957 -668 0
-671 957 0
-671 668 0
672 -717 -715 0
-672 717 0
-672 715 0
673 -672 -43 0
-673 672 0
-673 43 0
674 -958 -671 0
-674 958 0
-674 671 0
675 -769 -701 0
-675 769 0
-675 701 0
676 -675 -708 0
-676 675 0
-676 708 0
677 -959 -674 0
-677 959 0
-677 674 0
678 -47 -27 0
-678 47 0
-678 27 0
679 -678 -742 0
-679 678 0
-679 742 0
680 -960 -677 0
-680 960 0
-680 677 0
681 -25 -7 0
-681 25 0
-681 7 0
682 -681 -743 0
-682 681 0
-682 743 0
683 -961 -680 0
-683 961 0
-683 680 0
684 -41 -714 0
-684 41 0
-684 714 0
685 -684 -8 0
-685 684 0
-685 8 0
686 -962 -683 0
-686 962 0
-686 683 0
687 -17 -7 0
-687 17 0
-687 7 0
688 -687 -828 0
-688 687 0
-688 828 0
689 -963 -686 0
-689 963 0
-689 686 0
690 -809 -4 0
-690 809 0
-690 4 0
691 -690 -758 0
-691 690 0
-691 758 0
692 -964 -689 0
-692 964 0
-692 689 0
693 -738 -4 0
-693 738 0
-693 4 0
694 -693 -43 0
-694 693 0
-694 43 0
695 -965 -692 0
-695 965 0
-695 692 0
696 -41 -6 0
-696 41 0
-696 6 0
697 -696 -23 0
-697 696 0
-697 23 0
698 -966 -695 0
-698 966 0
-698 695 0
-699 -1 0
699 1 0
-700 -3 0
700 3 0
-701 -4 0
701 4 0
-702 -2 0
702 2 0
-703 -54 0
703 54 0
-704 -52 0
704 52 0
-705 -57 0
705 57 0
-706 -7 0
706 7 0
-707 -60 0
707 60 0
-708 -11 0
708 11 0
-709 -12 0
709 12 0
-710 -63 0
710 63 0
-711 -14 0
711 14 0
-712 -13 0
712 13 0
-713 -66 0
713 66 0
-714 -15 0
714 15 0
-715 -16 0
715 16 0
-716 -69 0
716 69 0
-717 -18 0
717 18 0
-718 -72 0
718 72 0
-719 -20 0
719 20 0
-720 -21 0
720 21 0
-721 -75 0
721 75 0
-722 -22 0
722 22 0
-723 -78 0
723 78 0
-724 -81 0
724 81 0
-725 -25 0
725 25 0
-726 -84 0
726 84 0
-727 -26 0
727 26 0
-728 -87 0
728 87 0
-729 -90 0
729 90 0
-730 -28 0
730 28 0
-731 -93 0
731 93 0
-732 -30 0
732 30 0
-733 -24 0
733 24 0
-734 -96 0
734 96 0
-735 -19 0
735 19 0
-736 -31 0
736 31 0
-737 -99 0
737 99 0
-738 -32 0
738 32 0
-739 -27 0
739 27 0
-740 -33 0
740 33 0
-741 -102 0
741 102 0
-742 -34 0
742 34 0
-743 -35 0
743 35 0
-744 -105 0
744 105 0
-745 -108 0
745 108 0
-746 -10 0
746 10 0
-747 -111 0
747 111 0
-748 -114 0
748 114 0
-749 -39 0
749 39 0
-750 -117 0
750 117 0
-751 -120 0
751 120 0
-752 -5 0
752 5 0
-753 -123 0
753 123 0
-754 -17 0
754 17 0
-755 -126 0
755 126 0
-756 -129 0
756 129 0
-757 -37 0
757 37 0
-758 -42 0
758 42 0
-759 -132 0
759 132 0
-760 -135 0
760 135 0
-761 -138 0
761 138 0
-762 -141 0
762 141 0
-763 -144 0
763 144 0
-764 -147 0
764 147 0
-765 -150 0
765 150 0
-766 -23 0
766 23 0
-767 -153 0
767 153 0
-768 -156 0
768 156 0
-769 -45 0
769 45 0
-770 -159 0
770 159 0
-771 -162 0
771 162 0
-772 -36 0
772 36 0
-773 -165 0
773 165 0
-774 -41 0
774 41 0
-775 -168 0
775 168 0
-776 -171 0
776 171 0
-777 -174 0
777 174 0
-778 -8 0
778 8 0
-779 -177 0
779 177 0
-780 -180 0
780 180 0
-781 -183 0
781 183 0
-782 -186 0
782 186 0
-783 -189 0
783 189 0
-784 -48 0
784 48 0
-785 -192 0
785 192 0
-786 -195 0
786 195 0
-787 -198 0
787 198 0
-788 -201 0
788 201 0
-789 -204 0
789 204 0
-790 -207 0
790 207 0
-791 -210 0
791 210 0
-792 -212 0
792 212 0
-793 -215 0
793 215 0
-794 -218 0
794 218 0
-795 -6 0
795 6 0
-796 -221 0
796 221 0
-797 -224 0
797 224 0
-798 -227 0
798 227 0
-799 -230 0
799 230 0
-800 -233 0
800 233 0
-801 -43 0
801 43 0
-802 -236 0
802 236 0
-803 -239 0
803 239 0
-804 -242 0
804 242 0
-805 -244 0
805 244 0
-806 -50 0
806 50 0
-807 -247 0
807 247 0
-808 -250 0
808 250 0
-809 -40 0
809 40 0
-810 -253 0
810 253 0
-811 -256 0
811 256 0
-812 -259 0
812 259 0
-813 -49 0
813 49 0
-814 -262 0
814 262 0
-815 -265 0
815 265 0
-816 -268 0
816 268 0
-817 -271 0
817 271 0
-818 -274 0
818 274 0
-819 -277 0
819 277 0
-820 -280 0
820 280 0
-821 -283 0
821 283 0
-822 -286 0
822 286 0
-823 -289 0
823 289 0
-824 -292 0
824 292 0
-825 -294 0
825 294 0
-826 -297 0
826 297 0
-827 -300 0
827 300 0
-828 -38 0
828 38 0
-829 -303 0
829 303 0
-830 -306 0
830 306 0
-831 -309 0
831 309 0
-832 -312 0
832 312 0
-833 -315 0
833 315 0
-834 -318 0
834 318 0
-835 -321 0
835 321 0
-836 -324 0
836 324 0
-837 -327 0
837 327 0
-838 -330 0
838 330 0
-839 -44 0
839 44 0
-840 -333 0
840 333 0
-841 -336 0
841 336 0
-842 -339 0
842 339 0
-843 -342 0
843 342 0
-844 -345 0
844 345 0
-845 -348 0
845 348 0
-846 -351 0
846 351 0
-847 -354 0
847 354 0
-848 -357 0
848 357 0
-849 -360 0
849 360 0
-850 -363 0
850 363 0
-851 -366 0
851 366 0
-852 -369 0
852 369 0
-853 -372 0
853 372 0
-854 -47 0
854 47 0
-855 -375 0
855 375 0
-856 -378 0
856 378 0
-857 -381 0
857 381 0
-858 -384 0
858 384 0
-859 -387 0
859 387 0
-860 -390 0
860 390 0
-861 -9 0
861 9 0
-862 -393 0
862 393 0
-863 -396 0
863 396 0
-864 -399 0
864 399 0
-865 -402 0
865 402 0
-866 -405 0
866 405 0
-867 -408 0
867 408 0
-868 -29 0
868 29 0
-869 -411 0
869 411 0
-870 -414 0
870 414 0
-871 -417 0
871 417 0
-872 -420 0
872 420 0
-873 -423 0
873 423 0
-874 -426 0
874 426 0
-875 -429 0
875 429 0
-876 -432 0
876 432 0
-877 -435 0
877 435 0
-878 -438 0
878 438 0
-879 -441 0
879 441 0
-880 -444 0
880 444 0
-881 -447 0
881 447 0
-882 -450 0
882 450 0
-883 -453 0
883 453 0
-884 -456 0
884 456 0
-885 -459 0
885 459 0
-886 -462 0
886 462 0
-887 -465 0
887 465 0
-888 -468 0
888 468 0
-889 -471 0
889 471 0
-890 -474 0
890 474 0
-891 -477 0
891 477 0
-892 -480 0
892 480 0
-893 -483 0
893 483 0
-894 -46 0
894 46 0
-895 -486 0
895 486 0
-896 -489 0
896 489 0
-897 -492 0
897 492 0
-898 -495 0
898 495 0
-899 -498 0
899 498 0
-900 -501 0
900 501 0
-901 -504 0
901 504 0
-902 -507 0
902 507 0
-903 -510 0
903 510 0
-904 -513 0
904 513 0
-905 -516 0
905 516 0
-906 -519 0
906 519 0
-907 -522 0
907 522 0
-908 -525 0
908 525 0
-909 -528 0
909 528 0
-910 -531 0
910 531 0
-911 -534 0
911 534 0
-912 -537 0
912 537 0
-913 -540 0
913 540 0
-914 -543 0
914 543 0
-915 -546 0
915 546 0
-916 -549 0
916 549 0
-917 -552 0
917 552 0
-918 -555 0
918 555 0
-919 -558 0
919 558 0
-920 -560 0
920 560 0
-921 -563 0
921 563 0
-922 -566 0
922 566 0
-923 -569 0
923 569 0
-924 -572 0
924 572 0
-925 -575 0
925 575 0
-926 -578 0
926 578 0
-927 -581 0
927 581 0
-928 -584 0
928 584 0
-929 -587 0
929 587 0
-930 -590 0
930 590 0
-931 -593 0
931 593 0
-932 -596 0
932 596 0
-933 -599 0
933 599 0
-934 -602 0
934 602 0
-935 -605 0
935 605 0
-936 -608 0
936 608 0
-937 -611 0
937 611 0
-938 -614 0
938 614 0
-939 -617 0
939 617 0
-940 -620 0
940 620 0
-941 -622 0
941 622 0
-942 -625 0
942 625 0
-943 -628 0
943 628 0
-944 -631 0
944 631 0
-945 -634 0
945 634 0
-946 -637 0
946 637 0
-947 -640 0
947 640 0
-948 -643 0
948 643 0
-949 -646 0
949 646 0
-950 -649 0
950 649 0
-951 -652 0
951 652 0
-952 -655 0
952 655 0
-953 -658 0
953 658 0
-954 -661 0
954 661 0
-955 -664 0
955 664 0
-956 -667 0
956 667 0
-957 -670 0
957 670 0
-958 -673 0
958 673 0
-959 -676 0
959 676 0
-960 -679 0
960 679 0
-961 -682 0
961 682 0
-962 -685 0
962 685 0
-963 -688 0
963 688 0
-964 -691 0
964 691 0
-965 -694 0
965 694 0
-966 -697 0
966 697 0
698 0
